(set-logic QF_LRA)
(declare-fun X0 () Real )
(declare-fun Y0 () Real )
(declare-fun X1 () Real )
(declare-fun Y1 () Real )
(declare-fun X2 () Real )
(declare-fun Y2 () Real )
(declare-fun X3 () Real )
(declare-fun Y3 () Real )
(declare-fun X4 () Real )
(declare-fun Y4 () Real )
(declare-fun X5 () Real )
(declare-fun Y5 () Real )
(declare-fun X6 () Real )
(declare-fun Y6 () Real )
(declare-fun X7 () Real )
(declare-fun Y7 () Real )
(declare-fun X8 () Real )
(declare-fun Y8 () Real )
(declare-fun Z () Real )
(assert ( and  
( or ( <= ( + X0 66 ) X1 )  ( <= ( + X1 60 ) X0 )  ( <= ( + Y0 73 ) Y1 )  ( <= ( + Y1 83 ) Y0 )  )
( or ( <= ( + X0 66 ) X2 )  ( <= ( + X2 10 ) X0 )  ( <= ( + Y0 73 ) Y2 )  ( <= ( + Y2 9 ) Y0 )  )
( or ( <= ( + X0 66 ) X3 )  ( <= ( + X3 89 ) X0 )  ( <= ( + Y0 73 ) Y3 )  ( <= ( + Y3 59 ) Y0 )  )
( or ( <= ( + X0 66 ) X4 )  ( <= ( + X4 48 ) X0 )  ( <= ( + Y0 73 ) Y4 )  ( <= ( + Y4 48 ) Y0 )  )
( or ( <= ( + X0 66 ) X5 )  ( <= ( + X5 25 ) X0 )  ( <= ( + Y0 73 ) Y5 )  ( <= ( + Y5 98 ) Y0 )  )
( or ( <= ( + X0 66 ) X6 )  ( <= ( + X6 80 ) X0 )  ( <= ( + Y0 73 ) Y6 )  ( <= ( + Y6 49 ) Y0 )  )
( or ( <= ( + X0 66 ) X7 )  ( <= ( + X7 95 ) X0 )  ( <= ( + Y0 73 ) Y7 )  ( <= ( + Y7 66 ) Y0 )  )
( or ( <= ( + X0 66 ) X8 )  ( <= ( + X8 5 ) X0 )  ( <= ( + Y0 73 ) Y8 )  ( <= ( + Y8 56 ) Y0 )  )
( or ( <= ( + X1 60 ) X2 )  ( <= ( + X2 10 ) X1 )  ( <= ( + Y1 83 ) Y2 )  ( <= ( + Y2 9 ) Y1 )  )
( or ( <= ( + X1 60 ) X3 )  ( <= ( + X3 89 ) X1 )  ( <= ( + Y1 83 ) Y3 )  ( <= ( + Y3 59 ) Y1 )  )
( or ( <= ( + X1 60 ) X4 )  ( <= ( + X4 48 ) X1 )  ( <= ( + Y1 83 ) Y4 )  ( <= ( + Y4 48 ) Y1 )  )
( or ( <= ( + X1 60 ) X5 )  ( <= ( + X5 25 ) X1 )  ( <= ( + Y1 83 ) Y5 )  ( <= ( + Y5 98 ) Y1 )  )
( or ( <= ( + X1 60 ) X6 )  ( <= ( + X6 80 ) X1 )  ( <= ( + Y1 83 ) Y6 )  ( <= ( + Y6 49 ) Y1 )  )
( or ( <= ( + X1 60 ) X7 )  ( <= ( + X7 95 ) X1 )  ( <= ( + Y1 83 ) Y7 )  ( <= ( + Y7 66 ) Y1 )  )
( or ( <= ( + X1 60 ) X8 )  ( <= ( + X8 5 ) X1 )  ( <= ( + Y1 83 ) Y8 )  ( <= ( + Y8 56 ) Y1 )  )
( or ( <= ( + X2 10 ) X3 )  ( <= ( + X3 89 ) X2 )  ( <= ( + Y2 9 ) Y3 )  ( <= ( + Y3 59 ) Y2 )  )
( or ( <= ( + X2 10 ) X4 )  ( <= ( + X4 48 ) X2 )  ( <= ( + Y2 9 ) Y4 )  ( <= ( + Y4 48 ) Y2 )  )
( or ( <= ( + X2 10 ) X5 )  ( <= ( + X5 25 ) X2 )  ( <= ( + Y2 9 ) Y5 )  ( <= ( + Y5 98 ) Y2 )  )
( or ( <= ( + X2 10 ) X6 )  ( <= ( + X6 80 ) X2 )  ( <= ( + Y2 9 ) Y6 )  ( <= ( + Y6 49 ) Y2 )  )
( or ( <= ( + X2 10 ) X7 )  ( <= ( + X7 95 ) X2 )  ( <= ( + Y2 9 ) Y7 )  ( <= ( + Y7 66 ) Y2 )  )
( or ( <= ( + X2 10 ) X8 )  ( <= ( + X8 5 ) X2 )  ( <= ( + Y2 9 ) Y8 )  ( <= ( + Y8 56 ) Y2 )  )
( or ( <= ( + X3 89 ) X4 )  ( <= ( + X4 48 ) X3 )  ( <= ( + Y3 59 ) Y4 )  ( <= ( + Y4 48 ) Y3 )  )
( or ( <= ( + X3 89 ) X5 )  ( <= ( + X5 25 ) X3 )  ( <= ( + Y3 59 ) Y5 )  ( <= ( + Y5 98 ) Y3 )  )
( or ( <= ( + X3 89 ) X6 )  ( <= ( + X6 80 ) X3 )  ( <= ( + Y3 59 ) Y6 )  ( <= ( + Y6 49 ) Y3 )  )
( or ( <= ( + X3 89 ) X7 )  ( <= ( + X7 95 ) X3 )  ( <= ( + Y3 59 ) Y7 )  ( <= ( + Y7 66 ) Y3 )  )
( or ( <= ( + X3 89 ) X8 )  ( <= ( + X8 5 ) X3 )  ( <= ( + Y3 59 ) Y8 )  ( <= ( + Y8 56 ) Y3 )  )
( or ( <= ( + X4 48 ) X5 )  ( <= ( + X5 25 ) X4 )  ( <= ( + Y4 48 ) Y5 )  ( <= ( + Y5 98 ) Y4 )  )
( or ( <= ( + X4 48 ) X6 )  ( <= ( + X6 80 ) X4 )  ( <= ( + Y4 48 ) Y6 )  ( <= ( + Y6 49 ) Y4 )  )
( or ( <= ( + X4 48 ) X7 )  ( <= ( + X7 95 ) X4 )  ( <= ( + Y4 48 ) Y7 )  ( <= ( + Y7 66 ) Y4 )  )
( or ( <= ( + X4 48 ) X8 )  ( <= ( + X8 5 ) X4 )  ( <= ( + Y4 48 ) Y8 )  ( <= ( + Y8 56 ) Y4 )  )
( or ( <= ( + X5 25 ) X6 )  ( <= ( + X6 80 ) X5 )  ( <= ( + Y5 98 ) Y6 )  ( <= ( + Y6 49 ) Y5 )  )
( or ( <= ( + X5 25 ) X7 )  ( <= ( + X7 95 ) X5 )  ( <= ( + Y5 98 ) Y7 )  ( <= ( + Y7 66 ) Y5 )  )
( or ( <= ( + X5 25 ) X8 )  ( <= ( + X8 5 ) X5 )  ( <= ( + Y5 98 ) Y8 )  ( <= ( + Y8 56 ) Y5 )  )
( or ( <= ( + X6 80 ) X7 )  ( <= ( + X7 95 ) X6 )  ( <= ( + Y6 49 ) Y7 )  ( <= ( + Y7 66 ) Y6 )  )
( or ( <= ( + X6 80 ) X8 )  ( <= ( + X8 5 ) X6 )  ( <= ( + Y6 49 ) Y8 )  ( <= ( + Y8 56 ) Y6 )  )
( or ( <= ( + X7 95 ) X8 )  ( <= ( + X8 5 ) X7 )  ( <= ( + Y7 66 ) Y8 )  ( <= ( + Y8 56 ) Y7 )  )
( >= X0 0)
( <= ( + X0 66) Z)
( >= Y0 0)
( <= ( + Y0 73 ) 100)
( >= X1 0)
( <= ( + X1 60) Z)
( >= Y1 0)
( <= ( + Y1 83 ) 100)
( >= X2 0)
( <= ( + X2 10) Z)
( >= Y2 0)
( <= ( + Y2 9 ) 100)
( >= X3 0)
( <= ( + X3 89) Z)
( >= Y3 0)
( <= ( + Y3 59 ) 100)
( >= X4 0)
( <= ( + X4 48) Z)
( >= Y4 0)
( <= ( + Y4 48 ) 100)
( >= X5 0)
( <= ( + X5 25) Z)
( >= Y5 0)
( <= ( + Y5 98 ) 100)
( >= X6 0)
( <= ( + X6 80) Z)
( >= Y6 0)
( <= ( + Y6 49 ) 100)
( >= X7 0)
( <= ( + X7 95) Z)
( >= Y7 0)
( <= ( + Y7 66 ) 100)
( >= X8 0)
( <= ( + X8 5) Z)
( >= Y8 0)
( <= ( + Y8 56 ) 100)
) )
(minimize Z)
(check-sat)
